...
(declare-fun var_69 () Real)
(declare-fun var_70 () Bool)
(declare-fun var_71 () Real)
...
(assert (and (or var_70 (and (>= var_69 1.44) (<= var_69 2.3))) ...))
(assert (and (or var_70 (and (>= var_68 6.0) (<= var_68 24.15))) ...))
(assert (and (and (and (and (and (and (and (= var_28 (+ (+ ...)))))))))))
...